10 45 5
0 1 3.00
0 2 1.00
0 3 10.00
0 4 1.00
0 5 10.00
0 6 1.00
0 7 10.00
0 8 1.00
0 9 3.00
1 2 3.00
1 3 10.00
1 4 10.00
1 5 10.00
1 6 10.00
1 7 10.00
1 8 10.00
1 9 10.00
2 3 3.00
2 4 1.00
2 5 10.00
2 6 1.00
2 7 10.00
2 8 1.00
2 9 10.00
3 4 3.00
3 5 10.00
3 6 10.00
3 7 10.00
3 8 10.00
3 9 10.00
4 5 3.00
4 6 1.00
4 7 10.00
4 8 1.00
4 9 10.00
5 6 3.00
5 7 10.00
5 8 10.00
5 9 10.00
6 7 3.00
6 8 1.00
6 9 10.00
7 8 3.00
7 9 10.00
8 9 3.00
0
2
4
6
8
